p cnf 123 432
c p weight -13 1 0
c p weight 13 -1 0
c p weight 17 6.12323399573676603586882014729198302312846062338790031898128063403419218957424163818359375E-17 0
c p weight -17 1 0
c p weight 18 1 0
c p weight -18 1 0
c p weight -15 1 0
c p weight 15 -1 0
c p weight -19 1 0
c p weight 19 -1 0
c p weight -21 1 0
c p weight 21 -1 0
c p weight -22 1 0
c p weight 22 -1 0
c p weight 26 6.12323399573676603586882014729198302312846062338790031898128063403419218957424163818359375E-17 0
c p weight -26 1 0
c p weight 27 1 0
c p weight -27 1 0
c p weight -24 1 0
c p weight 24 -1 0
c p weight -28 1 0
c p weight 28 -1 0
c p weight -30 1 0
c p weight 30 -1 0
c p weight -31 1 0
c p weight 31 -1 0
c p weight 35 6.12323399573676603586882014729198302312846062338790031898128063403419218957424163818359375E-17 0
c p weight -35 1 0
c p weight 36 1 0
c p weight -36 1 0
c p weight -33 1 0
c p weight 33 -1 0
c p weight -37 1 0
c p weight 37 -1 0
c p weight -39 1 0
c p weight 39 -1 0
c p weight 43 6.12323399573676603586882014729198302312846062338790031898128063403419218957424163818359375E-17 0
c p weight -43 1 0
c p weight 44 1 0
c p weight -44 1 0
c p weight -41 1 0
c p weight 41 -1 0
c p weight -45 1 0
c p weight 45 -1 0
c p weight -47 1 0
c p weight 47 -1 0
c p weight -48 1 0
c p weight 48 -1 0
c p weight 52 6.12323399573676603586882014729198302312846062338790031898128063403419218957424163818359375E-17 0
c p weight -52 1 0
c p weight 53 1 0
c p weight -53 1 0
c p weight -50 1 0
c p weight 50 -1 0
c p weight -54 1 0
c p weight 54 -1 0
c p weight -56 1 0
c p weight 56 -1 0
c p weight -57 1 0
c p weight 57 -1 0
c p weight 61 6.12323399573676603586882014729198302312846062338790031898128063403419218957424163818359375E-17 0
c p weight -61 1 0
c p weight 62 1 0
c p weight -62 1 0
c p weight -59 1 0
c p weight 59 -1 0
c p weight -63 1 0
c p weight 63 -1 0
c p weight -65 1 0
c p weight 65 -1 0
c p weight -68 1 0
c p weight 68 -1 0
c p weight -69 1 0
c p weight 69 -1 0
c p weight 73 6.12323399573676603586882014729198302312846062338790031898128063403419218957424163818359375E-17 0
c p weight -73 1 0
c p weight 74 1 0
c p weight -74 1 0
c p weight -71 1 0
c p weight 71 -1 0
c p weight -75 1 0
c p weight 75 -1 0
c p weight -77 1 0
c p weight 77 -1 0
c p weight -80 1 0
c p weight 80 -1 0
c p weight -81 1 0
c p weight 81 -1 0
c p weight 85 6.12323399573676603586882014729198302312846062338790031898128063403419218957424163818359375E-17 0
c p weight -85 1 0
c p weight 86 1 0
c p weight -86 1 0
c p weight -83 1 0
c p weight 83 -1 0
c p weight -87 1 0
c p weight 87 -1 0
c p weight -89 1 0
c p weight 89 -1 0
c p weight -92 1 0
c p weight 92 -1 0
c p weight 96 6.12323399573676603586882014729198302312846062338790031898128063403419218957424163818359375E-17 0
c p weight -96 1 0
c p weight 97 1 0
c p weight -97 1 0
c p weight -94 1 0
c p weight 94 -1 0
c p weight -98 1 0
c p weight 98 -1 0
c p weight -100 1 0
c p weight 100 -1 0
c p weight -103 1 0
c p weight 103 -1 0
c p weight -104 1 0
c p weight 104 -1 0
c p weight 108 6.12323399573676603586882014729198302312846062338790031898128063403419218957424163818359375E-17 0
c p weight -108 1 0
c p weight 109 1 0
c p weight -109 1 0
c p weight -106 1 0
c p weight 106 -1 0
c p weight -110 1 0
c p weight 110 -1 0
c p weight -112 1 0
c p weight 112 -1 0
c p weight -115 1 0
c p weight 115 -1 0
c p weight 119 6.12323399573676603586882014729198302312846062338790031898128063403419218957424163818359375E-17 0
c p weight -119 1 0
c p weight 120 1 0
c p weight -120 1 0
c p weight -117 1 0
c p weight 117 -1 0
c p weight -121 1 0
c p weight 121 -1 0
c p weight 123 0.5 0
c p weight -123 1 0
123 0
-11 0
-9 0
-7 0
-5 0
-3 0
-1 0
-13 1 0
-13 2 0
13 -1 -2 0
14 1 -2 0
14 -1 2 0
-14 1 2 0
-14 -1 -2 0
-15 16 0
-15 14 0
-15 -1 0
15 -16 1 -14 0
16 -1 14 0
-16 1 14 0
-17 14 0
16 -17 -1 0
-16 -17 1 0
16 17 1 -14 0
-16 17 -1 -14 0
-18 14 0
16 -18 1 0
-16 -18 -1 0
16 18 -1 -14 0
-16 18 1 -14 0
-19 16 0
-19 14 0
19 -16 -14 0
20 16 -14 0
20 -16 14 0
-20 16 14 0
-20 -16 -14 0
21 -20 0
-21 20 0
-22 3 0
-22 4 0
22 -3 -4 0
23 3 -4 0
23 -3 4 0
-23 3 4 0
-23 -3 -4 0
-24 25 0
-24 23 0
-24 -3 0
24 -25 3 -23 0
25 -3 23 0
-25 3 23 0
-26 23 0
25 -26 -3 0
-25 -26 3 0
25 26 3 -23 0
-25 26 -3 -23 0
-27 23 0
25 -27 3 0
-25 -27 -3 0
25 27 -3 -23 0
-25 27 3 -23 0
-28 25 0
-28 23 0
28 -25 -23 0
29 25 -23 0
29 -25 23 0
-29 25 23 0
-29 -25 -23 0
30 -29 0
-30 29 0
-31 5 0
-31 6 0
31 -5 -6 0
32 5 -6 0
32 -5 6 0
-32 5 6 0
-32 -5 -6 0
-33 34 0
-33 32 0
-33 -5 0
33 -34 5 -32 0
34 -5 32 0
-34 5 32 0
-35 32 0
34 -35 -5 0
-34 -35 5 0
34 35 5 -32 0
-34 35 -5 -32 0
-36 32 0
34 -36 5 0
-34 -36 -5 0
34 36 -5 -32 0
-34 36 5 -32 0
-37 34 0
-37 32 0
37 -34 -32 0
38 34 -32 0
38 -34 32 0
-38 34 32 0
-38 -34 -32 0
-39 7 0
-39 8 0
39 -7 -8 0
40 7 -8 0
40 -7 8 0
-40 7 8 0
-40 -7 -8 0
-41 42 0
-41 40 0
-41 -7 0
41 -42 7 -40 0
42 -7 40 0
-42 7 40 0
-43 40 0
42 -43 -7 0
-42 -43 7 0
42 43 7 -40 0
-42 43 -7 -40 0
-44 40 0
42 -44 7 0
-42 -44 -7 0
42 44 -7 -40 0
-42 44 7 -40 0
-45 42 0
-45 40 0
45 -42 -40 0
46 42 -40 0
46 -42 40 0
-46 42 40 0
-46 -42 -40 0
47 -46 0
-47 46 0
-48 9 0
-48 10 0
48 -9 -10 0
49 9 -10 0
49 -9 10 0
-49 9 10 0
-49 -9 -10 0
-50 51 0
-50 49 0
-50 -9 0
50 -51 9 -49 0
51 -9 49 0
-51 9 49 0
-52 49 0
51 -52 -9 0
-51 -52 9 0
51 52 9 -49 0
-51 52 -9 -49 0
-53 49 0
51 -53 9 0
-51 -53 -9 0
51 53 -9 -49 0
-51 53 9 -49 0
-54 51 0
-54 49 0
54 -51 -49 0
55 51 -49 0
55 -51 49 0
-55 51 49 0
-55 -51 -49 0
56 -12 0
-56 12 0
-57 11 0
-57 12 0
57 -11 -12 0
58 11 -12 0
58 -11 12 0
-58 11 12 0
-58 -11 -12 0
-59 60 0
-59 58 0
-59 -11 0
59 -60 11 -58 0
60 -11 58 0
-60 11 58 0
-61 58 0
60 -61 -11 0
-60 -61 11 0
60 61 11 -58 0
-60 61 -11 -58 0
-62 58 0
60 -62 11 0
-60 -62 -11 0
60 62 -11 -58 0
-60 62 11 -58 0
-63 60 0
-63 58 0
63 -60 -58 0
64 60 -58 0
64 -60 58 0
-64 60 58 0
-64 -60 -58 0
-65 16 0
-65 64 0
-65 60 -20 0
-65 -60 20 0
65 -16 60 20 -64 0
65 -16 -60 -20 -64 0
67 16 -60 0
67 -16 60 0
-67 16 60 0
-67 -16 -60 0
66 20 -64 0
66 -20 64 0
-66 20 64 0
-66 -20 -64 0
68 -66 0
-68 66 0
-69 16 0
-69 66 0
69 -16 -66 0
70 16 -66 0
70 -16 66 0
-70 16 66 0
-70 -16 -66 0
-71 72 0
-71 70 0
-71 -16 0
71 -72 16 -70 0
72 -16 70 0
-72 16 70 0
-73 70 0
72 -73 -16 0
-72 -73 16 0
72 73 16 -70 0
-72 73 -16 -70 0
-74 70 0
72 -74 16 0
-72 -74 -16 0
72 74 -16 -70 0
-72 74 16 -70 0
-75 72 0
-75 70 0
75 -72 -70 0
76 72 -70 0
76 -72 70 0
-76 72 70 0
-76 -72 -70 0
-77 25 0
-77 64 0
-77 67 -29 0
-77 -67 29 0
77 -25 67 29 -64 0
77 -25 -67 -29 -64 0
79 25 -67 0
79 -25 67 0
-79 25 67 0
-79 -25 -67 0
78 29 -64 0
78 -29 64 0
-78 29 64 0
-78 -29 -64 0
80 -78 0
-80 78 0
-81 25 0
-81 78 0
81 -25 -78 0
82 25 -78 0
82 -25 78 0
-82 25 78 0
-82 -25 -78 0
-83 84 0
-83 82 0
-83 -25 0
83 -84 25 -82 0
84 -25 82 0
-84 25 82 0
-85 82 0
84 -85 -25 0
-84 -85 25 0
84 85 25 -82 0
-84 85 -25 -82 0
-86 82 0
84 -86 25 0
-84 -86 -25 0
84 86 -25 -82 0
-84 86 25 -82 0
-87 84 0
-87 82 0
87 -84 -82 0
88 84 -82 0
88 -84 82 0
-88 84 82 0
-88 -84 -82 0
-89 34 0
-89 64 0
-89 79 -38 0
-89 -79 38 0
89 -34 79 38 -64 0
89 -34 -79 -38 -64 0
91 34 -79 0
91 -34 79 0
-91 34 79 0
-91 -34 -79 0
90 38 -64 0
90 -38 64 0
-90 38 64 0
-90 -38 -64 0
-92 34 0
-92 90 0
92 -34 -90 0
93 34 -90 0
93 -34 90 0
-93 34 90 0
-93 -34 -90 0
-94 95 0
-94 93 0
-94 -34 0
94 -95 34 -93 0
95 -34 93 0
-95 34 93 0
-96 93 0
95 -96 -34 0
-95 -96 34 0
95 96 34 -93 0
-95 96 -34 -93 0
-97 93 0
95 -97 34 0
-95 -97 -34 0
95 97 -34 -93 0
-95 97 34 -93 0
-98 95 0
-98 93 0
98 -95 -93 0
99 95 -93 0
99 -95 93 0
-99 95 93 0
-99 -95 -93 0
-100 42 0
-100 64 0
-100 91 -46 0
-100 -91 46 0
100 -42 91 46 -64 0
100 -42 -91 -46 -64 0
102 42 -91 0
102 -42 91 0
-102 42 91 0
-102 -42 -91 0
101 46 -64 0
101 -46 64 0
-101 46 64 0
-101 -46 -64 0
103 -101 0
-103 101 0
-104 42 0
-104 101 0
104 -42 -101 0
105 42 -101 0
105 -42 101 0
-105 42 101 0
-105 -42 -101 0
-106 107 0
-106 105 0
-106 -42 0
106 -107 42 -105 0
107 -42 105 0
-107 42 105 0
-108 105 0
107 -108 -42 0
-107 -108 42 0
107 108 42 -105 0
-107 108 -42 -105 0
-109 105 0
107 -109 42 0
-107 -109 -42 0
107 109 -42 -105 0
-107 109 42 -105 0
-110 107 0
-110 105 0
110 -107 -105 0
111 107 -105 0
111 -107 105 0
-111 107 105 0
-111 -107 -105 0
-112 51 0
-112 64 0
-112 102 -55 0
-112 -102 55 0
112 -51 102 55 -64 0
112 -51 -102 -55 -64 0
114 51 -102 0
114 -51 102 0
-114 51 102 0
-114 -51 -102 0
113 55 -64 0
113 -55 64 0
-113 55 64 0
-113 -55 -64 0
-115 51 0
-115 113 0
115 -51 -113 0
116 51 -113 0
116 -51 113 0
-116 51 113 0
-116 -51 -113 0
-117 118 0
-117 116 0
-117 -51 0
117 -118 51 -116 0
118 -51 116 0
-118 51 116 0
-119 116 0
118 -119 -51 0
-118 -119 51 0
118 119 51 -116 0
-118 119 -51 -116 0
-120 116 0
118 -120 51 0
-118 -120 -51 0
118 120 -51 -116 0
-118 120 51 -116 0
-121 118 0
-121 116 0
121 -118 -116 0
122 118 -116 0
122 -118 116 0
-122 118 116 0
-122 -118 -116 0
-72 0
-84 0
-88 0
-95 0
-99 0
-107 0
-111 0
-118 0
-122 0
-114 0
-64 0
